letting initialStacks = [19, 3, 4, 11, 51, 31, 48, 7, 32, 43, 23, 14, 40, 9, 27, 34, 46, 45, 49, 22, 38, 16, 26, 13, 39, 17, 50, 44, 10, 5, 18, 37, 25, 47, 15, 12, 1, 33, 30, 41, 36, 42, 21, 28, 20, 6, 8, 35, 24, 2, 29]
